p cnf 412 698
48 69 -60 76 0
48 69 -60 -76 0
-37 -32 17 77 0
-37 -32 17 -77 0
-21 -35 8 78 0
-21 -35 8 -78 0
56 -63 29 79 0
56 -63 29 -79 0
-24 -33 -22 80 0
-24 -33 -22 -80 0
53 -44 -35 81 0
53 -44 -35 -81 0
11 -12 -25 82 0
11 -12 -25 -82 0
-55 -18 30 83 0
-55 -18 30 -83 0
-22 53 -70 84 0
-22 53 -70 -84 0
4 32 -71 85 0
4 32 -71 -85 0
68 70 35 86 0
68 70 35 -86 0
-20 -42 21 87 0
-20 -42 21 -87 0
-38 48 36 88 0
-38 48 36 -88 0
-74 56 11 89 0
-74 56 11 -89 0
31 -34 -50 90 0
31 -34 -50 -90 0
-17 51 62 91 0
-17 51 62 -91 0
61 -22 -59 92 0
61 -22 -59 -92 0
-25 29 -24 93 0
-25 29 -24 -93 0
18 19 -38 94 0
18 19 -38 -94 0
47 -42 26 95 0
47 -42 26 -95 0
-14 -10 -60 96 0
-14 -10 -60 -96 0
-17 -47 -10 97 0
-17 -47 -10 -97 0
52 -3 -28 98 0
52 -3 -28 -98 0
59 6 67 99 0
59 6 67 -99 0
-14 6 -46 100 0
-14 6 -46 -100 0
49 -41 47 101 0
49 -41 47 -101 0
20 -57 -4 102 0
20 -57 -4 -102 0
-29 33 -60 103 0
-29 33 -60 -103 0
29 16 53 104 0
29 16 53 -104 0
-24 51 -18 105 0
-24 51 -18 -105 0
32 63 -11 106 0
32 63 -11 -106 0
-36 -40 33 107 0
-36 -40 33 -107 0
22 48 -6 108 0
22 48 -6 -108 0
-31 -21 -52 109 0
-31 -21 -52 -109 0
-33 61 69 110 0
-33 61 69 -110 0
-34 42 -29 111 0
-34 42 -29 -111 0
19 -51 -30 112 0
19 -51 -30 -112 0
34 -37 56 113 0
34 -37 56 -113 0
-67 -63 64 114 0
-67 -63 64 -114 0
43 -2 -17 115 0
43 -2 -17 -115 0
63 -7 13 116 0
63 -7 13 -116 0
6 -3 35 117 0
6 -3 35 -117 0
49 -32 66 118 0
49 -32 66 -118 0
-2 61 -13 119 0
-2 61 -13 -119 0
-13 33 60 120 0
-13 33 60 -120 0
-36 -13 -44 121 0
-36 -13 -44 -121 0
58 1 -5 122 0
58 1 -5 -122 0
27 -64 31 123 0
27 -64 31 -123 0
-41 -75 -15 124 0
-41 -75 -15 -124 0
21 56 2 125 0
21 56 2 -125 0
37 -66 19 126 0
37 -66 19 -126 0
5 -25 17 127 0
5 -25 17 -127 0
-8 69 20 128 0
-8 69 20 -128 0
67 52 -16 129 0
67 52 -16 -129 0
-50 -40 -52 130 0
-50 -40 -52 -130 0
17 60 2 131 0
17 60 2 -131 0
27 51 -34 132 0
27 51 -34 -132 0
43 11 9 133 0
43 11 9 -133 0
72 73 42 134 0
72 73 42 -134 0
53 -1 -66 135 0
53 -1 -66 -135 0
12 73 -45 136 0
12 73 -45 -136 0
31 -46 -65 137 0
31 -46 -65 -137 0
-48 73 63 138 0
-48 73 63 -138 0
-50 -16 54 139 0
-50 -16 54 -139 0
-29 43 -70 140 0
-29 43 -70 -140 0
69 -20 24 141 0
69 -20 24 -141 0
37 10 -65 142 0
37 10 -65 -142 0
-5 -63 -51 143 0
-5 -63 -51 -143 0
-5 -16 -10 144 0
-5 -16 -10 -144 0
-63 21 -19 145 0
-63 21 -19 -145 0
-36 71 61 146 0
-36 71 61 -146 0
-3 -39 -34 147 0
-3 -39 -34 -147 0
45 -69 37 148 0
45 -69 37 -148 0
14 -64 18 149 0
14 -64 18 -149 0
75 35 30 150 0
75 35 30 -150 0
-59 52 28 151 0
-59 52 28 -151 0
69 39 -68 152 0
69 39 -68 -152 0
1 75 49 153 0
1 75 49 -153 0
-40 -32 -23 154 0
-40 -32 -23 -154 0
66 -54 -29 155 0
66 -54 -29 -155 0
52 56 -21 156 0
52 56 -21 -156 0
33 -19 -20 157 0
33 -19 -20 -157 0
-6 47 -49 158 0
-6 47 -49 -158 0
14 48 24 159 0
14 48 24 -159 0
-31 -19 -57 160 0
-31 -19 -57 -160 0
-28 15 -35 161 0
-28 15 -35 -161 0
-30 51 -3 162 0
-30 51 -3 -162 0
-24 -7 21 163 0
-24 -7 21 -163 0
64 75 3 164 0
64 75 3 -164 0
-16 -66 50 165 0
-16 -66 50 -165 0
51 -2 -28 166 0
51 -2 -28 -166 0
-69 -5 22 167 0
-69 -5 22 -167 0
-46 -2 29 168 0
-46 -2 29 -168 0
22 -63 -15 169 0
22 -63 -15 -169 0
55 15 40 170 0
55 15 40 -170 0
-43 -63 -16 171 0
-43 -63 -16 -171 0
-41 -67 -71 172 0
-41 -67 -71 -172 0
10 34 -51 173 0
10 34 -51 -173 0
-52 -47 36 174 0
-52 -47 36 -174 0
41 -50 6 175 0
41 -50 6 -175 0
-47 -49 36 176 0
-47 -49 36 -176 0
-8 37 -22 177 0
-8 37 -22 -177 0
-5 59 46 178 0
-5 59 46 -178 0
19 -57 55 179 0
19 -57 55 -179 0
-50 26 -65 180 0
-50 26 -65 -180 0
74 -2 -25 181 0
74 -2 -25 -181 0
61 -52 -33 182 0
61 -52 -33 -182 0
-3 51 -41 183 0
-3 51 -41 -183 0
-68 -36 32 184 0
-68 -36 32 -184 0
-63 -19 -34 185 0
-63 -19 -34 -185 0
-28 72 66 186 0
-28 72 66 -186 0
48 16 -11 187 0
48 16 -11 -187 0
62 -25 -33 188 0
62 -25 -33 -188 0
3 65 -10 189 0
3 65 -10 -189 0
43 25 -73 190 0
43 25 -73 -190 0
-66 30 67 191 0
-66 30 67 -191 0
15 -54 -38 192 0
15 -54 -38 -192 0
-8 -46 9 193 0
-8 -46 9 -193 0
15 1 71 194 0
15 1 71 -194 0
4 3 -58 195 0
4 3 -58 -195 0
-72 -69 13 196 0
-72 -69 13 -196 0
-10 65 -73 197 0
-10 65 -73 -197 0
-31 -23 27 198 0
-31 -23 27 -198 0
-46 3 -25 199 0
-46 3 -25 -199 0
-74 32 -62 200 0
-74 32 -62 -200 0
-40 30 60 201 0
-40 30 60 -201 0
-72 -27 -24 202 0
-72 -27 -24 -202 0
51 -30 -61 203 0
51 -30 -61 -203 0
-26 40 51 204 0
-26 40 51 -204 0
35 -4 -34 205 0
35 -4 -34 -205 0
-12 24 -21 206 0
-12 24 -21 -206 0
-31 -73 -65 207 0
-31 -73 -65 -207 0
-18 42 -3 208 0
-18 42 -3 -208 0
-70 -52 27 209 0
-70 -52 27 -209 0
4 -60 -63 210 0
4 -60 -63 -210 0
37 -68 75 211 0
37 -68 75 -211 0
-64 -67 27 212 0
-64 -67 27 -212 0
-60 -26 -33 213 0
-60 -26 -33 -213 0
-39 63 21 214 0
-39 63 21 -214 0
19 -36 62 215 0
19 -36 62 -215 0
-60 -22 23 216 0
-60 -22 23 -216 0
-21 43 -9 217 0
-21 43 -9 -217 0
63 -71 17 218 0
63 -71 17 -218 0
65 22 73 219 0
65 22 73 -219 0
-13 31 -66 220 0
-13 31 -66 -220 0
-29 22 -72 221 0
-29 22 -72 -221 0
68 -27 19 222 0
68 -27 19 -222 0
67 61 25 223 0
67 61 25 -223 0
19 71 -29 224 0
19 71 -29 -224 0
46 19 72 225 0
46 19 72 -225 0
12 46 -54 226 0
12 46 -54 -226 0
60 15 11 227 0
60 15 11 -227 0
-32 7 70 228 0
-32 7 70 -228 0
63 -33 72 229 0
63 -33 72 -229 0
-58 -20 -23 230 0
-58 -20 -23 -230 0
-12 -67 11 231 0
-12 -67 11 -231 0
-49 -59 -46 232 0
-49 -59 -46 -232 0
-68 -19 67 233 0
-68 -19 67 -233 0
63 39 -60 234 0
63 39 -60 -234 0
-62 31 -10 235 0
-62 31 -10 -235 0
-52 3 60 236 0
-52 3 60 -236 0
-16 -61 -63 237 0
-16 -61 -63 -237 0
-68 -66 -40 238 0
-68 -66 -40 -238 0
43 -52 8 239 0
43 -52 8 -239 0
15 43 -50 240 0
15 43 -50 -240 0
-74 60 -63 241 0
-74 60 -63 -241 0
-75 -42 50 242 0
-75 -42 50 -242 0
-35 34 13 243 0
-35 34 13 -243 0
-44 56 54 244 0
-44 56 54 -244 0
-71 -23 3 245 0
-71 -23 3 -245 0
31 46 70 246 0
31 46 70 -246 0
-7 29 62 247 0
-7 29 62 -247 0
3 -50 -60 248 0
3 -50 -60 -248 0
-17 -54 71 249 0
-17 -54 71 -249 0
65 -9 -33 250 0
65 -9 -33 -250 0
65 -27 -37 251 0
65 -27 -37 -251 0
-14 9 -43 252 0
-14 9 -43 -252 0
73 -74 -55 253 0
73 -74 -55 -253 0
30 -64 31 254 0
30 -64 31 -254 0
55 46 25 255 0
55 46 25 -255 0
55 71 32 256 0
55 71 32 -256 0
-73 17 -22 257 0
-73 17 -22 -257 0
35 10 44 258 0
35 10 44 -258 0
66 52 -4 259 0
66 52 -4 -259 0
-37 -56 31 260 0
-37 -56 31 -260 0
67 -47 32 261 0
67 -47 32 -261 0
-36 60 -52 262 0
-36 60 -52 -262 0
-27 -59 73 263 0
-27 -59 73 -263 0
11 63 -71 264 0
11 63 -71 -264 0
74 45 -53 265 0
74 45 -53 -265 0
67 -23 17 266 0
67 -23 17 -266 0
58 -7 64 267 0
58 -7 64 -267 0
22 16 -73 268 0
22 16 -73 -268 0
38 21 -57 269 0
38 21 -57 -269 0
-30 -34 -7 270 0
-30 -34 -7 -270 0
55 -12 -69 271 0
55 -12 -69 -271 0
59 -64 -62 272 0
59 -64 -62 -272 0
-39 68 -73 273 0
-39 68 -73 -273 0
-19 -24 -49 274 0
-19 -24 -49 -274 0
6 17 -73 275 0
6 17 -73 -275 0
-64 -59 -74 276 0
-64 -59 -74 -276 0
-55 44 -41 277 0
-55 44 -41 -277 0
24 14 38 278 0
24 14 38 -278 0
24 40 -4 279 0
24 40 -4 -279 0
-7 39 19 280 0
-7 39 19 -280 0
26 24 -64 281 0
26 24 -64 -281 0
-55 -48 -9 282 0
-55 -48 -9 -282 0
-65 7 -12 283 0
-65 7 -12 -283 0
19 63 45 284 0
19 63 45 -284 0
25 50 -44 285 0
25 50 -44 -285 0
-43 24 39 286 0
-43 24 39 -286 0
-34 -75 -16 287 0
-34 -75 -16 -287 0
63 -1 58 288 0
63 -1 58 -288 0
12 11 -20 289 0
12 11 -20 -289 0
-72 -13 -14 290 0
-72 -13 -14 -290 0
-20 27 -35 291 0
-20 27 -35 -291 0
-48 49 -66 292 0
-48 49 -66 -292 0
-42 38 36 293 0
-42 38 36 -293 0
2 15 56 294 0
2 15 56 -294 0
20 33 38 295 0
20 33 38 -295 0
-14 49 52 296 0
-14 49 52 -296 0
41 69 59 297 0
41 69 59 -297 0
-11 -1 -59 298 0
-11 -1 -59 -298 0
-7 68 -3 299 0
-7 68 -3 -299 0
-12 -36 72 300 0
-12 -36 72 -300 0
-74 -7 75 301 0
-74 -7 75 -301 0
-61 -21 -14 302 0
-61 -21 -14 -302 0
-66 63 -49 303 0
-66 63 -49 -303 0
-38 40 -32 304 0
-38 40 -32 -304 0
5 39 8 305 0
5 39 8 -305 0
28 -12 -8 306 0
28 -12 -8 -306 0
-47 49 -9 307 0
-47 49 -9 -307 0
34 -9 48 308 0
34 -9 48 -308 0
47 -21 -46 309 0
47 -21 -46 -309 0
-51 -66 -37 310 0
-51 -66 -37 -310 0
-59 -20 -61 311 0
-59 -20 -61 -311 0
-53 18 -21 312 0
-53 18 -21 -312 0
47 -38 48 313 0
47 -38 48 -313 0
-26 17 51 314 0
-26 17 51 -314 0
69 -71 28 315 0
69 -71 28 -315 0
-4 37 39 316 0
-4 37 39 -316 0
-38 -5 28 317 0
-38 -5 28 -317 0
-22 -38 -69 318 0
-22 -38 -69 -318 0
-24 7 56 319 0
-24 7 56 -319 0
-36 72 -71 320 0
-36 72 -71 -320 0
-8 30 11 321 0
-8 30 11 -321 0
56 -57 43 322 0
56 -57 43 -322 0
39 -61 -70 323 0
39 -61 -70 -323 0
-70 4 -58 324 0
-70 4 -58 -324 0
-51 39 57 325 0
-51 39 57 -325 0
21 35 -38 326 0
21 35 -38 -326 0
69 -61 38 327 0
69 -61 38 -327 0
-69 -32 -63 328 0
-69 -32 -63 -328 0
40 58 -46 329 0
40 58 -46 -329 0
-8 -12 -65 330 0
-8 -12 -65 -330 0
74 73 35 331 0
74 73 35 -331 0
-22 -64 -54 332 0
-22 -64 -54 -332 0
-51 13 42 333 0
-51 13 42 -333 0
3 58 54 334 0
3 58 54 -334 0
33 -22 38 335 0
33 -22 38 -335 0
19 74 -53 336 0
19 74 -53 -336 0
49 -64 47 337 0
49 -64 47 -337 0
-7 -58 68 338 0
-7 -58 68 -338 0
-49 -41 55 339 0
-49 -41 55 -339 0
-31 1 -44 340 0
-31 1 -44 -340 0
-72 74 -44 341 0
-72 74 -44 -341 0
43 75 33 342 0
43 75 33 -342 0
40 38 -61 343 0
40 38 -61 -343 0
34 -56 -9 344 0
34 -56 -9 -344 0
-19 -10 -64 345 0
-19 -10 -64 -345 0
33 59 64 346 0
33 59 64 -346 0
45 1 -14 347 0
45 1 -14 -347 0
-5 54 8 348 0
-5 54 8 -348 0
-34 -44 -71 349 0
-34 -44 -71 -349 0
30 -75 -60 350 0
30 -75 -60 -350 0
-7 20 -31 351 0
-7 20 -31 -351 0
-9 64 -23 352 0
-9 64 -23 -352 0
-70 -56 75 353 0
-70 -56 75 -353 0
-19 35 -11 354 0
-19 35 -11 -354 0
15 45 -33 355 0
15 45 -33 -355 0
-21 48 -35 356 0
-21 48 -35 -356 0
29 26 -66 357 0
29 26 -66 -357 0
-14 -9 -58 358 0
-14 -9 -58 -358 0
18 -34 -8 359 0
18 -34 -8 -359 0
-17 -64 -38 360 0
-17 -64 -38 -360 0
-13 -12 -27 361 0
-13 -12 -27 -361 0
15 5 -13 362 0
15 5 -13 -362 0
-63 37 -50 363 0
-63 37 -50 -363 0
-43 -53 -8 364 0
-43 -53 -8 -364 0
44 -72 45 365 0
44 -72 45 -365 0
61 58 46 366 0
61 58 46 -366 0
75 -45 -27 367 0
75 -45 -27 -367 0
54 38 -12 368 0
54 38 -12 -368 0
2 51 24 369 0
2 51 24 -369 0
65 70 -74 370 0
65 70 -74 -370 0
-70 -61 -27 371 0
-70 -61 -27 -371 0
63 73 26 372 0
63 73 26 -372 0
64 -39 -1 373 0
64 -39 -1 -373 0
18 -23 -71 374 0
18 -23 -71 -374 0
-16 -44 -72 375 0
-16 -44 -72 -375 0
45 31 -68 376 0
45 31 -68 -376 0
73 26 -75 377 0
73 26 -75 -377 0
1 -24 39 378 0
1 -24 39 -378 0
-48 57 33 379 0
-48 57 33 -379 0
41 -24 51 380 0
41 -24 51 -380 0
-3 -44 50 381 0
-3 -44 50 -381 0
-44 -52 -28 382 0
-44 -52 -28 -382 0
43 -64 -12 383 0
43 -64 -12 -383 0
-17 38 -32 384 0
-17 38 -32 -384 0
57 45 -63 385 0
57 45 -63 -385 0
51 11 30 386 0
51 11 30 -386 0
-29 49 -60 387 0
-29 49 -60 -387 0
-44 -60 38 388 0
-44 -60 38 -388 0
-31 -8 -64 389 0
-31 -8 -64 -389 0
27 -38 -39 390 0
27 -38 -39 -390 0
75 -46 -56 391 0
75 -46 -56 -391 0
38 25 -35 392 0
38 25 -35 -392 0
71 50 37 393 0
71 50 37 -393 0
-60 -61 35 394 0
-60 -61 35 -394 0
42 75 -55 395 0
42 75 -55 -395 0
51 -14 19 396 0
51 -14 19 -396 0
-18 5 -39 397 0
-18 5 -39 -397 0
-29 -22 -18 398 0
-29 -22 -18 -398 0
-17 39 33 399 0
-17 39 33 -399 0
-69 -54 5 400 0
-69 -54 5 -400 0
401 402 403 404 0
401 402 403 -404 0
401 402 -403 404 0
401 402 -403 -404 0
401 -402 403 404 0
401 -402 403 -404 0
401 -402 -403 404 0
401 -402 -403 -404 0
-401 402 403 404 0
-401 402 403 -404 0
-401 402 -403 404 0
-401 402 -403 -404 0
-401 -402 403 404 0
-401 -402 403 -404 0
-401 -402 -403 404 0
-401 -402 -403 -404 0
405 406 407 408 0
405 406 407 -408 0
405 406 -407 408 0
405 406 -407 -408 0
405 -406 407 408 0
405 -406 407 -408 0
405 -406 -407 408 0
405 -406 -407 -408 0
-405 406 407 408 0
-405 406 407 -408 0
-405 406 -407 408 0
-405 406 -407 -408 0
-405 -406 407 408 0
-405 -406 407 -408 0
-405 -406 -407 408 0
-405 -406 -407 -408 0
409 410 411 412 0
409 410 411 -412 0
409 410 -411 412 0
409 410 -411 -412 0
409 -410 411 412 0
409 -410 411 -412 0
409 -410 -411 412 0
409 -410 -411 -412 0
-409 410 411 412 0
-409 410 411 -412 0
-409 410 -411 412 0
-409 410 -411 -412 0
-409 -410 411 412 0
-409 -410 411 -412 0
-409 -410 -411 412 0
-409 -410 -411 -412 0
